NAME : ch71009
COMMENT : 71009 locations in China
COMMENT : Derived from National Imagery and Mapping Agency data
TYPE : TSP
DIMENSION : 6
EDGE_WEIGHT_TYPE : EUC_2D
NODE_COORD_SECTION
1 21 23
2 2  233
3 182 12
4 12 32
5 23  122
6 132 234
END